# Solution for model Master Problem
# Objective value = 5.4616295943773343e+02
theta[1] 0
theta[2] 0
theta[3] 0
theta[4] 0
theta[5] 0
theta[6] 0
theta[7] 0
theta[8] 0
theta[9] 0
theta[10] 0
theta[11] 0
theta[12] 0
theta[13] 0
theta[14] 0
theta[15] 0
theta[16] 0
theta[17] 0
theta[18] 0
theta[19] 0
theta[20] 0
theta[21] 0
theta[22] 0
theta[23] 0
theta[24] 0
theta[25] 0
theta[26] 1.6216216216216228e-01
theta[27] 0
theta[28] 0
theta[29] 7.0270270270270263e-01
theta[30] 0
theta[31] 0
theta[32] 0
theta[33] 0
theta[34] 6.2162162162162160e-01
theta[35] 0
theta[36] 2.9729729729729737e-01
theta[37] 2.9729729729729737e-01
theta[38] 0
theta[39] 0
theta[40] 2.7027027027027029e-02
theta[41] 0
theta[42] 1.6216216216216184e-01
theta[43] 2.9729729729729737e-01
theta[44] 0
theta[45] 0
theta[46] 0
theta[47] 0
theta[48] 0
theta[49] 8.1081081081081141e-02
theta[50] 3.5135135135135132e-01
theta[51] 0
theta[52] 0
theta[53] 0
theta[54] 1.8918918918918903e-01
theta[55] 0
theta[56] 0
theta[57] 2.4324324324324331e-01
theta[58] 8.1081081081081030e-02
theta[59] 0
theta[60] 2.1621621621621623e-01
theta[61] 1.6216216216216217e-01
theta[62] 1.8918918918918937e-01
theta[63] 2.1621621621621623e-01
theta[64] 8.1081081081081141e-02
theta[65] 1.0810810810810789e-01
theta[66] 2.4324324324324342e-01
theta[67] 1.3513513513513509e-01
theta[68] 0
theta[69] 1.0810810810810789e-01
theta[70] 0
theta[71] 3.2432432432432445e-01
